     Program PWSCF v.7.2 starts on  6Apr2025 at 21:41:13

     Reading input from ./si_q.scf.in

     Current dimensions of program PWSCF are:
     Max number of different atomic species (ntypx) = 10
     Max number of k-points (npk) =  40000
     Max angular momentum in pseudopotentials (lmaxx) =  4

     R & G space division:  proc/nbgrp/npool/nimage =       8
     Subspace diagonalization in iterative solution of the eigenvalue problem:
     a serial algorithm will be used

     Using Slab Decomposition

     bravais-lattice index     =            2
     lattice parameter (alat)  =      10.2000  a.u.
     unit-cell volume          =     265.3020 (a.u.)^3
     number of atoms/cell      =            2
     number of atomic types    =            1
     number of electrons       =         8.00
     number of Kohn-Sham states=           30
     kinetic-energy cutoff     =      25.0000  Ry
     charge density cutoff     =     100.0000  Ry
     scf convergence threshold =      1.0E-08
     mixing beta               =       0.7000
     number of iterations used =            8  plain     mixing
     Exchange-correlation= PBE
                           (   1   4   3   4   0   0   0)

     celldm(1)=  10.200000  celldm(2)=   0.000000  celldm(3)=   0.000000
     celldm(4)=   0.000000  celldm(5)=   0.000000  celldm(6)=   0.000000

     crystal axes: (cart. coord. in units of alat)
               a(1) = (  -0.500000   0.000000   0.500000 )
               a(2) = (   0.000000   0.500000   0.500000 )
               a(3) = (  -0.500000   0.500000   0.000000 )

     reciprocal axes: (cart. coord. in units 2 pi/alat)
               b(1) = ( -1.000000 -1.000000  1.000000 )
               b(2) = (  1.000000  1.000000  1.000000 )
               b(3) = ( -1.000000  1.000000 -1.000000 )

     PseudoPot. # 1 for Si read from file:
     ../pseudo/Si_ONCV_PBE-1.2.upf
     MD5 check sum: 7f029a58b69e3aa87b46a36c608bf45e
     Pseudo is Norm-conserving, Zval =  4.0
     Generated using ONCVPSP code by D. R. Hamann
     Using radial grid of  602 points,  4 beta functions with:
                l(1) =   0
                l(2) =   0
                l(3) =   1
                l(4) =   1

     atomic species   valence    mass     pseudopotential
     Si                4.00    28.08600     Si( 1.00)

     No symmetry found

                                    s                        frac. trans.

      isym =  1     identity

 cryst.   s( 1) = (     1          0          0      )
                  (     0          1          0      )
                  (     0          0          1      )

 cart.    s( 1) = (  1.0000000  0.0000000  0.0000000 )
                  (  0.0000000  1.0000000  0.0000000 )
                  (  0.0000000  0.0000000  1.0000000 )

     point group C_1 (1)
     there are  1 classes
     the character table:

       E
A      1.00

     the symmetry operations in each class and the name of the first element:

     E        1
          identity

   Cartesian axes

     site n.     atom                  positions (alat units)
         1        Si     tau(   1) = (  -0.8750000   0.8750000   0.8750000  )
         2        Si     tau(   2) = (  -0.1250000   0.1250000   0.1250000  )

   Crystallographic axes

     site n.     atom                  positions (cryst. coord.)
         1        Si     tau(   1) = (  0.8750000  0.8750000  0.8750000  )
         2        Si     tau(   2) = (  0.1250000  0.1250000  0.1250000  )

     number of k points=    64
                       cart. coord. in units 2pi/alat
        k(    1) = (  -0.0010000   0.0010000   0.0010000), wk =   0.0312500
        k(    2) = (  -0.2510000   0.2510000  -0.2490000), wk =   0.0312500
        k(    3) = (  -0.5010000   0.5010000  -0.4990000), wk =   0.0312500
        k(    4) = (  -0.7510000   0.7510000  -0.7490000), wk =   0.0312500
        k(    5) = (   0.2490000   0.2510000   0.2510000), wk =   0.0312500
        k(    6) = (  -0.0010000   0.5010000   0.0010000), wk =   0.0312500
        k(    7) = (  -0.2510000   0.7510000  -0.2490000), wk =   0.0312500
        k(    8) = (  -0.5010000   1.0010000  -0.4990000), wk =   0.0312500
        k(    9) = (   0.4990000   0.5010000   0.5010000), wk =   0.0312500
        k(   10) = (   0.2490000   0.7510000   0.2510000), wk =   0.0312500
        k(   11) = (  -0.0010000   1.0010000   0.0010000), wk =   0.0312500
        k(   12) = (  -0.2510000   1.2510000  -0.2490000), wk =   0.0312500
        k(   13) = (   0.7490000   0.7510000   0.7510000), wk =   0.0312500
        k(   14) = (   0.4990000   1.0010000   0.5010000), wk =   0.0312500
        k(   15) = (   0.2490000   1.2510000   0.2510000), wk =   0.0312500
        k(   16) = (  -0.0010000   1.5010000   0.0010000), wk =   0.0312500
        k(   17) = (  -0.2510000  -0.2490000   0.2510000), wk =   0.0312500
        k(   18) = (  -0.5010000   0.0010000   0.0010000), wk =   0.0312500
        k(   19) = (  -0.7510000   0.2510000  -0.2490000), wk =   0.0312500
        k(   20) = (  -1.0010000   0.5010000  -0.4990000), wk =   0.0312500
        k(   21) = (  -0.0010000   0.0010000   0.5010000), wk =   0.0312500
        k(   22) = (  -0.2510000   0.2510000   0.2510000), wk =   0.0312500
        k(   23) = (  -0.5010000   0.5010000   0.0010000), wk =   0.0312500
        k(   24) = (  -0.7510000   0.7510000  -0.2490000), wk =   0.0312500
        k(   25) = (   0.2490000   0.2510000   0.7510000), wk =   0.0312500
        k(   26) = (  -0.0010000   0.5010000   0.5010000), wk =   0.0312500
        k(   27) = (  -0.2510000   0.7510000   0.2510000), wk =   0.0312500
        k(   28) = (  -0.5010000   1.0010000   0.0010000), wk =   0.0312500
        k(   29) = (   0.4990000   0.5010000   1.0010000), wk =   0.0312500
        k(   30) = (   0.2490000   0.7510000   0.7510000), wk =   0.0312500
        k(   31) = (  -0.0010000   1.0010000   0.5010000), wk =   0.0312500
        k(   32) = (  -0.2510000   1.2510000   0.2510000), wk =   0.0312500
        k(   33) = (  -0.5010000  -0.4990000   0.5010000), wk =   0.0312500
        k(   34) = (  -0.7510000  -0.2490000   0.2510000), wk =   0.0312500
        k(   35) = (  -1.0010000   0.0010000   0.0010000), wk =   0.0312500
        k(   36) = (  -1.2510000   0.2510000  -0.2490000), wk =   0.0312500
        k(   37) = (  -0.2510000  -0.2490000   0.7510000), wk =   0.0312500
        k(   38) = (  -0.5010000   0.0010000   0.5010000), wk =   0.0312500
        k(   39) = (  -0.7510000   0.2510000   0.2510000), wk =   0.0312500
        k(   40) = (  -1.0010000   0.5010000   0.0010000), wk =   0.0312500
        k(   41) = (  -0.0010000   0.0010000   1.0010000), wk =   0.0312500
        k(   42) = (  -0.2510000   0.2510000   0.7510000), wk =   0.0312500
        k(   43) = (  -0.5010000   0.5010000   0.5010000), wk =   0.0312500
        k(   44) = (  -0.7510000   0.7510000   0.2510000), wk =   0.0312500
        k(   45) = (   0.2490000   0.2510000   1.2510000), wk =   0.0312500
        k(   46) = (  -0.0010000   0.5010000   1.0010000), wk =   0.0312500
        k(   47) = (  -0.2510000   0.7510000   0.7510000), wk =   0.0312500
        k(   48) = (  -0.5010000   1.0010000   0.5010000), wk =   0.0312500
        k(   49) = (  -0.7510000  -0.7490000   0.7510000), wk =   0.0312500
        k(   50) = (  -1.0010000  -0.4990000   0.5010000), wk =   0.0312500
        k(   51) = (  -1.2510000  -0.2490000   0.2510000), wk =   0.0312500
        k(   52) = (  -1.5010000   0.0010000   0.0010000), wk =   0.0312500
        k(   53) = (  -0.5010000  -0.4990000   1.0010000), wk =   0.0312500
        k(   54) = (  -0.7510000  -0.2490000   0.7510000), wk =   0.0312500
        k(   55) = (  -1.0010000   0.0010000   0.5010000), wk =   0.0312500
        k(   56) = (  -1.2510000   0.2510000   0.2510000), wk =   0.0312500
        k(   57) = (  -0.2510000  -0.2490000   1.2510000), wk =   0.0312500
        k(   58) = (  -0.5010000   0.0010000   1.0010000), wk =   0.0312500
        k(   59) = (  -0.7510000   0.2510000   0.7510000), wk =   0.0312500
        k(   60) = (  -1.0010000   0.5010000   0.5010000), wk =   0.0312500
        k(   61) = (  -0.0010000   0.0010000   1.5010000), wk =   0.0312500
        k(   62) = (  -0.2510000   0.2510000   1.2510000), wk =   0.0312500
        k(   63) = (  -0.5010000   0.5010000   1.0010000), wk =   0.0312500
        k(   64) = (  -0.7510000   0.7510000   0.7510000), wk =   0.0312500

                       cryst. coord.
        k(    1) = (   0.0010000   0.0010000   0.0010000), wk =   0.0312500
        k(    2) = (   0.0010000   0.0010000   0.2510000), wk =   0.0312500
        k(    3) = (   0.0010000   0.0010000   0.5010000), wk =   0.0312500
        k(    4) = (   0.0010000   0.0010000   0.7510000), wk =   0.0312500
        k(    5) = (   0.0010000   0.2510000   0.0010000), wk =   0.0312500
        k(    6) = (   0.0010000   0.2510000   0.2510000), wk =   0.0312500
        k(    7) = (   0.0010000   0.2510000   0.5010000), wk =   0.0312500
        k(    8) = (   0.0010000   0.2510000   0.7510000), wk =   0.0312500
        k(    9) = (   0.0010000   0.5010000   0.0010000), wk =   0.0312500
        k(   10) = (   0.0010000   0.5010000   0.2510000), wk =   0.0312500
        k(   11) = (   0.0010000   0.5010000   0.5010000), wk =   0.0312500
        k(   12) = (   0.0010000   0.5010000   0.7510000), wk =   0.0312500
        k(   13) = (   0.0010000   0.7510000   0.0010000), wk =   0.0312500
        k(   14) = (   0.0010000   0.7510000   0.2510000), wk =   0.0312500
        k(   15) = (   0.0010000   0.7510000   0.5010000), wk =   0.0312500
        k(   16) = (   0.0010000   0.7510000   0.7510000), wk =   0.0312500
        k(   17) = (   0.2510000   0.0010000   0.0010000), wk =   0.0312500
        k(   18) = (   0.2510000   0.0010000   0.2510000), wk =   0.0312500
        k(   19) = (   0.2510000   0.0010000   0.5010000), wk =   0.0312500
        k(   20) = (   0.2510000   0.0010000   0.7510000), wk =   0.0312500
        k(   21) = (   0.2510000   0.2510000   0.0010000), wk =   0.0312500
        k(   22) = (   0.2510000   0.2510000   0.2510000), wk =   0.0312500
        k(   23) = (   0.2510000   0.2510000   0.5010000), wk =   0.0312500
        k(   24) = (   0.2510000   0.2510000   0.7510000), wk =   0.0312500
        k(   25) = (   0.2510000   0.5010000   0.0010000), wk =   0.0312500
        k(   26) = (   0.2510000   0.5010000   0.2510000), wk =   0.0312500
        k(   27) = (   0.2510000   0.5010000   0.5010000), wk =   0.0312500
        k(   28) = (   0.2510000   0.5010000   0.7510000), wk =   0.0312500
        k(   29) = (   0.2510000   0.7510000   0.0010000), wk =   0.0312500
        k(   30) = (   0.2510000   0.7510000   0.2510000), wk =   0.0312500
        k(   31) = (   0.2510000   0.7510000   0.5010000), wk =   0.0312500
        k(   32) = (   0.2510000   0.7510000   0.7510000), wk =   0.0312500
        k(   33) = (   0.5010000   0.0010000   0.0010000), wk =   0.0312500
        k(   34) = (   0.5010000   0.0010000   0.2510000), wk =   0.0312500
        k(   35) = (   0.5010000   0.0010000   0.5010000), wk =   0.0312500
        k(   36) = (   0.5010000   0.0010000   0.7510000), wk =   0.0312500
        k(   37) = (   0.5010000   0.2510000   0.0010000), wk =   0.0312500
        k(   38) = (   0.5010000   0.2510000   0.2510000), wk =   0.0312500
        k(   39) = (   0.5010000   0.2510000   0.5010000), wk =   0.0312500
        k(   40) = (   0.5010000   0.2510000   0.7510000), wk =   0.0312500
        k(   41) = (   0.5010000   0.5010000   0.0010000), wk =   0.0312500
        k(   42) = (   0.5010000   0.5010000   0.2510000), wk =   0.0312500
        k(   43) = (   0.5010000   0.5010000   0.5010000), wk =   0.0312500
        k(   44) = (   0.5010000   0.5010000   0.7510000), wk =   0.0312500
        k(   45) = (   0.5010000   0.7510000   0.0010000), wk =   0.0312500
        k(   46) = (   0.5010000   0.7510000   0.2510000), wk =   0.0312500
        k(   47) = (   0.5010000   0.7510000   0.5010000), wk =   0.0312500
        k(   48) = (   0.5010000   0.7510000   0.7510000), wk =   0.0312500
        k(   49) = (   0.7510000   0.0010000   0.0010000), wk =   0.0312500
        k(   50) = (   0.7510000   0.0010000   0.2510000), wk =   0.0312500
        k(   51) = (   0.7510000   0.0010000   0.5010000), wk =   0.0312500
        k(   52) = (   0.7510000   0.0010000   0.7510000), wk =   0.0312500
        k(   53) = (   0.7510000   0.2510000   0.0010000), wk =   0.0312500
        k(   54) = (   0.7510000   0.2510000   0.2510000), wk =   0.0312500
        k(   55) = (   0.7510000   0.2510000   0.5010000), wk =   0.0312500
        k(   56) = (   0.7510000   0.2510000   0.7510000), wk =   0.0312500
        k(   57) = (   0.7510000   0.5010000   0.0010000), wk =   0.0312500
        k(   58) = (   0.7510000   0.5010000   0.2510000), wk =   0.0312500
        k(   59) = (   0.7510000   0.5010000   0.5010000), wk =   0.0312500
        k(   60) = (   0.7510000   0.5010000   0.7510000), wk =   0.0312500
        k(   61) = (   0.7510000   0.7510000   0.0010000), wk =   0.0312500
        k(   62) = (   0.7510000   0.7510000   0.2510000), wk =   0.0312500
        k(   63) = (   0.7510000   0.7510000   0.5010000), wk =   0.0312500
        k(   64) = (   0.7510000   0.7510000   0.7510000), wk =   0.0312500

     Initial potential from superposition of free atoms

     starting charge       7.9075, renormalised to       8.0000
     Starting wfcs are random

     Self-consistent Calculation

     iteration #  1     ecut=    25.00 Ry     beta= 0.70
     Davidson diagonalization with overlap

     ethr =  1.00E-02,  avg # of iterations =  7.7

     Threshold (ethr) on eigenvalues was too large:
     Diagonalizing with lowered threshold

     Davidson diagonalization with overlap

[...]

     total energy              =     -15.74577233 Ry
     estimated scf accuracy    <       0.06092449 Ry

[...]

     total energy              =     -15.74870610 Ry
     estimated scf accuracy    <       0.00000013 Ry

     iteration #  5     ecut=    25.00 Ry     beta= 0.70
     Davidson diagonalization with overlap

     ethr =  1.65E-09,  avg # of iterations =  2.0

     End of self-consistent calculation

          k =-0.0010 0.0010 0.0010 (   537 PWs)   bands (ev):

    -5.6364   6.4734   6.4735   6.4735   9.0263   9.0263   9.0264  10.0044
    14.2270  14.2270  14.4711  17.7547  17.7549  17.7549  21.9684  29.8533
    29.8533  29.8533  30.9825  30.9825  32.6709  32.6709  32.6709  35.9513
    35.9515  35.9515  41.8626  41.8628  41.8628  45.2877

     occupation numbers
     1.0000   1.0000   1.0000   1.0000   0.0000   0.0000   0.0000   0.0000
     0.0000   0.0000   0.0000   0.0000   0.0000   0.0000   0.0000   0.0000
     0.0000   0.0000   0.0000   0.0000   0.0000   0.0000   0.0000   0.0000
     0.0000   0.0000   0.0000   0.0000   0.0000   0.0000

[...]

          k = 0.2490 0.2510 0.2510 (   564 PWs)   bands (ev):

[...]

          k = 0.2490 0.2510 1.2510 (   558 PWs)   bands (ev):

[...]

          k =-0.7510 0.7510 0.7510 (   564 PWs)   bands (ev):

    -4.8297   2.5138   5.7005   5.7005   8.5400   9.9754   9.9754  13.4994
    13.6635  13.6635  15.4984  18.3878  21.2153  21.2153  24.5183  24.5183
    24.7028  26.7114  30.8159  30.8159  33.5111  33.5111  34.7348  36.3111
    36.6628  38.6626  38.6626  40.3924  40.3924  41.2953

     occupation numbers
     1.0000   1.0000   1.0000   1.0000   0.0000   0.0000   0.0000   0.0000
     0.0000   0.0000   0.0000   0.0000   0.0000   0.0000   0.0000   0.0000
     0.0000   0.0000   0.0000   0.0000   0.0000   0.0000   0.0000   0.0000
     0.0000   0.0000   0.0000   0.0000   0.0000   0.0000

     highest occupied, lowest unoccupied level (ev):     6.4735    7.1178

!    total energy              =     -15.74870619 Ry
     estimated scf accuracy    <          1.0E-09 Ry

     The total energy is the sum of the following terms:
     one-electron contribution =       4.88766683 Ry
     hartree contribution      =       1.10870512 Ry
     xc contribution           =      -4.84531954 Ry
     ewald contribution        =     -16.89975860 Ry

     convergence has been achieved in   5 iterations

     Writing all to output data dir ./silicon.save/

     General routines

     Parallel routines

   This run was terminated on:  21:44:44   6Apr2025

   JOB DONE.